0 126560 
1 126330 
2 125930 
3 125780 
4 124980 
5 124580 
6 124540 
7 124540 
8 124240 
9 124040 
10 123840 
11 123640 
12 123640 
13 123540 
14 123340 
15 122840 
16 122640 
17 122440 
18 122240 
19 122140 
20 122140 
21 121740 
22 121640 
23 121440 
24 121180 
25 120660 
26 120000 
27 119900 
28 119700 
29 119700 
30 119500 
31 118900 
32 118500 
33 118000 
34 117600 
35 117300 
36 117100 
37 116980 
38 116580 
39 116180 
40 115980 
41 115580 
42 115180 
43 114880 
44 114680 
45 114580 
46 114180 
47 114130 
48 113970 
49 113570 
50 113170 
51 113070 
52 112970 
53 112670 
54 112470 
55 112370 
56 112170 
57 111670 
58 111570 
59 111380 
60 111280 
61 111080 
62 111070 
63 110970 
64 110870 
65 110670 
66 110070 
67 109870 
68 109670 
69 109570 
70 109370 
71 109270 
72 108670 
73 108570 
74 108470 
75 108270 
76 108180 
77 107580 
78 107180 
79 106780 
80 106380 
81 106080 
82 106080 
83 105880 
84 105210 
85 105010 
86 104810 
87 104510 
88 104490 
89 103690 
90 103290 
91 103090 
92 102990 
93 102990 
94 102990 
95 102760 
96 102570 
97 101870 
98 101770 
99 101570 
100 101570 
101 101560 
102 101540 
103 100570 
104 100320 
105 100320 
106 99780 
107 99680 
108 99480 
109 99280 
110 98750 
111 98750 
112 98750 
113 98630 
114 98430 
115 98330 
116 98240 
117 97840 
118 97840 
119 97640 
120 97240 
121 97240 
122 96240 
123 96240 
124 96140 
125 95940 
126 95940 
127 95940 
128 95740 
129 95740 
130 95740 
131 95540 
132 95540 
133 95540 
134 95540 
135 95540 
136 95540 
137 95540 
138 95540 
139 95540 
140 95540 
141 95540 
142 95540 
143 95340 
144 95340 
145 95340 
146 95340 
147 95340 
148 95340 
149 95340 
150 95340 
151 95340 
152 95340 
153 95340 
154 95340 
155 95340 
156 95140 
157 95140 
158 95140 
159 95140 
160 95140 
161 95140 
162 95140 
163 95140 
164 95140 
165 95140 
166 95040 
167 95040 
168 95040 
169 95040 
170 95040 
171 95040 
172 95040 
173 95040 
174 95040 
175 95040 
176 95040 
177 95040 
178 95040 
179 95040 
180 95040 
181 95040 
182 95040 
183 95040 
184 95040 
185 95040 
186 95040 
187 95040 
188 95040 
189 95040 
190 95040 
191 95040 
192 95040 
193 95040 
194 95040 
195 95040 
196 95040 
197 95040 
198 95040 
199 95040 
200 95040 
201 95040 
202 95040 
203 95040 
204 95040 
205 95040 
206 95040 
207 95040 
208 95040 
209 95040 
210 95040 
211 95040 
212 95040 
213 95040 
214 95040 
215 95040 
216 95040 
217 95040 
218 95040 
219 95040 
220 95040 
221 95040 
222 95040 
223 95040 
224 95040 
225 95040 
226 95040 
227 95040 
228 95040 
229 95040 
230 95040 
231 95040 
232 95040 
233 95040 
234 95040 
235 95040 
236 95040 
237 95040 
238 95040 
239 95040 
240 95040 
241 95040 
242 95040 
243 95040 
244 95040 
245 95040 
246 95040 
247 95040 
248 95040 
249 95040 
250 95040 
251 95040 
252 95040 
253 95040 
254 95040 
255 95040 
256 95040 
257 95040 
258 95040 
259 95040 
260 95040 
261 95040 
262 95040 
263 95040 
264 95040 
265 95040 
266 95040 
267 95040 
268 95040 
269 95040 
270 95040 
271 95040 
272 95040 
273 95040 
274 95040 
275 95040 
276 95040 
277 95040 
278 95040 
279 95040 
280 95040 
281 95040 
282 95040 
283 95040 
284 95040 
285 95040 
286 95040 
287 95040 
288 95040 
289 95040 
290 95040 
291 95040 
292 95040 
293 95040 
294 95040 
295 95040 
296 95040 
297 95040 
298 95040 
299 95040 
300 95040 
301 95040 
302 95040 
303 95040 
304 95040 
305 95040 
306 95040 
307 95040 
308 95040 
309 95040 
310 95040 
311 95040 
312 95040 
313 95040 
314 95040 
315 95040 
316 95040 
317 95040 
318 95040 
319 95040 
320 95040 
321 95040 
322 95040 
323 95040 
324 95040 
325 95040 
326 95040 
327 95040 
328 95040 
329 95040 
330 95040 
331 95040 
332 95040 
333 95040 
334 95040 
335 95040 
336 95040 
337 95040 
338 95040 
339 95040 
340 95040 
341 95040 
342 95040 
343 95040 
344 95040 
345 95040 
346 95040 
347 95040 
348 95040 
349 95040 
350 95040 
351 95040 
352 95040 
353 95040 
354 95040 
355 95040 
356 95040 
357 95040 
358 95040 
359 95040 
360 95040 
361 95040 
362 95040 
363 95040 
364 95040 
365 95040 
366 95040 
367 95040 
368 95040 
369 95040 
370 95040 
371 95040 
372 95040 
373 95040 
374 95040 
375 95040 
376 95040 
377 95040 
378 95040 
379 95040 
380 95040 
381 95040 
382 95040 
383 95040 
384 95040 
385 95040 
386 95040 
387 95040 
388 95040 
389 95040 
390 95040 
391 95040 
392 95040 
393 95040 
394 95040 
395 95040 
396 95040 
397 95040 
398 95040 
399 95040 
400 95040 
401 95040 
402 95040 
403 95040 
404 95040 
405 95040 
406 95040 
407 95040 
408 95040 
409 95040 
410 95040 
411 95040 
412 95040 
413 95040 
414 95040 
415 95040 
416 95040 
417 95040 
418 95040 
419 95040 
420 95040 
421 95040 
422 95040 
423 95040 
424 95040 
425 95040 
426 95040 
427 95040 
428 95040 
429 95040 
430 95040 
431 95040 
432 95040 
433 95040 
434 95040 
435 95040 
436 95040 
437 95040 
438 95040 
439 95040 
440 95040 
441 95040 
442 95040 
443 95040 
444 95040 
445 95040 
446 95040 
447 95040 
448 95040 
449 95040 
450 95040 
451 95040 
452 95040 
453 95040 
454 95040 
455 95040 
456 95040 
457 95040 
458 95040 
459 95040 
460 95040 
461 95040 
462 95040 
463 95040 
464 95040 
465 95040 
466 95040 
467 95040 
468 95040 
469 95040 
470 95040 
471 95040 
472 95040 
473 95040 
474 95040 
475 95040 
476 95040 
477 95040 
478 95040 
479 95040 
480 95040 
481 95040 
482 95040 
483 95040 
484 95040 
485 95040 
486 95040 
487 95040 
488 95040 
489 95040 
490 95040 
491 95040 
492 95040 
493 95040 
494 95040 
495 95040 
496 95040 
497 95040 
498 95040 
499 95040 
500 95040 
501 95040 
502 95040 
503 95040 
504 95040 
505 95040 
506 95040 
507 95040 
508 95040 
509 95040 
510 95040 
511 95040 
512 95040 
513 95040 
514 95040 
515 95040 
516 95040 
517 95040 
518 95040 
519 95040 
520 95040 
521 95040 
522 95040 
523 95040 
524 95040 
525 95040 
526 95040 
527 95040 
528 95040 
529 95040 
530 95040 
531 95040 
532 95040 
533 95040 
534 95040 
535 95040 
536 95040 
537 95040 
538 95040 
539 95040 
540 95040 
541 95040 
542 95040 
543 95040 
544 95040 
545 95040 
546 95040 
547 95040 
548 95040 
549 95040 
550 95040 
551 95040 
552 95040 
553 95040 
554 95040 
555 95040 
556 95040 
557 95040 
558 95040 
559 95040 
560 95040 
561 95040 
562 95040 
563 95040 
564 95040 
565 95040 
566 95040 
567 95040 
568 95040 
569 95040 
570 95040 
571 95040 
572 95040 
573 95040 
574 95040 
575 95040 
576 95040 
577 95040 
578 95040 
579 95040 
580 95040 
581 95040 
582 95040 
583 95040 
584 95040 
585 95040 
586 95040 
587 95040 
588 95040 
589 95040 
590 95040 
591 95040 
592 95040 
593 95040 
594 95040 
595 95040 
596 95040 
597 95040 
598 95040 
599 95040 
600 95040 
601 95040 
602 95040 
603 95040 
604 95040 
605 95040 
606 95040 
607 95040 
608 95040 
609 95040 
610 95040 
611 95040 
612 95040 
613 95040 
614 95040 
615 95040 
616 95040 
617 95040 
618 95040 
619 95040 
620 95040 
621 95040 
622 95040 
623 95040 
624 95040 
625 95040 
626 95040 
627 95040 
628 95040 
629 95040 
630 95040 
631 95040 
632 95040 
633 95040 
634 95040 
635 95040 
636 95040 
637 95040 
638 95040 
639 95040 
640 95040 
641 95040 
642 95040 
643 95040 
644 95040 
645 95040 
646 95040 
647 95040 
648 95040 
649 95040 
650 95040 
651 95040 
652 95040 
653 95040 
654 95040 
655 95040 
656 95040 
657 95040 
658 95040 
659 95040 
660 95040 
661 95040 
662 95040 
663 95040 
664 95040 
665 95040 
666 95040 
667 95040 
668 95040 
669 95040 
670 95040 
671 95040 
672 95040 
673 95040 
674 95040 
675 95040 
676 95040 
677 95040 
678 95040 
679 95040 
680 95040 
681 95040 
682 95040 
683 95040 
684 95040 
685 95040 
686 95040 
687 95040 
688 95040 
689 95040 
690 95040 
691 95040 
692 95040 
693 95040 
694 95040 
695 95040 
696 95040 
697 95040 
698 95040 
699 95040 
700 95040 
701 95040 
702 95040 
703 95040 
704 95040 
705 95040 
706 95040 
707 95040 
708 95040 
709 95040 
710 95040 
711 95040 
712 95040 
713 95040 
714 95040 
715 95040 
716 95040 
717 95040 
718 95040 
719 95040 
720 95040 
721 95040 
722 95040 
723 95040 
724 95040 
725 95040 
726 95040 
727 95040 
728 95040 
729 95040 
730 95040 
731 95040 
732 95040 
733 95040 
734 95040 
735 95040 
736 95040 
737 95040 
738 95040 
739 95040 
740 95040 
741 95040 
742 95040 
743 95040 
744 95040 
745 95040 
746 95040 
747 95040 
748 95040 
749 95040 
750 95040 
751 95040 
752 95040 
753 95040 
754 95040 
755 95040 
756 95040 
757 95040 
758 95040 
759 95040 
760 95040 
761 95040 
762 95040 
763 95040 
764 95040 
765 95040 
766 95040 
767 95040 
768 95040 
769 95040 
770 95040 
771 95040 
772 95040 
773 95040 
774 95040 
775 95040 
776 95040 
777 95040 
778 95040 
779 95040 
780 95040 
781 95040 
782 95040 
783 95040 
784 95040 
785 95040 
786 95040 
787 95040 
788 95040 
789 95040 
790 95040 
791 95040 
792 95040 
793 95040 
794 95040 
795 95040 
796 95040 
797 95040 
798 95040 
799 95040 
800 95040 
801 95040 
802 95040 
803 95040 
804 95040 
805 95040 
806 95040 
807 95040 
808 95040 
809 95040 
810 95040 
811 95040 
812 95040 
813 95040 
814 95040 
815 95040 
816 95040 
817 95040 
818 95040 
819 95040 
820 95040 
821 95040 
822 95040 
823 95040 
824 95040 
825 95040 
826 95040 
827 95040 
828 95040 
829 95040 
830 95040 
831 95040 
832 95040 
833 95040 
834 95040 
835 95040 
836 95040 
837 95040 
838 95040 
839 95040 
840 95040 
841 95040 
842 95040 
843 95040 
844 95040 
845 95040 
846 95040 
847 95040 
848 95040 
849 95040 
850 95040 
851 95040 
852 95040 
853 95040 
854 95040 
855 95040 
856 95040 
857 95040 
858 95040 
859 95040 
860 95040 
861 95040 
862 95040 
863 95040 
864 95040 
865 95040 
866 95040 
867 95040 
868 95040 
869 95040 
870 95040 
871 95040 
872 95040 
873 95040 
874 95040 
875 95040 
876 95040 
877 95040 
878 95040 
879 95040 
880 95040 
881 95040 
882 95040 
883 95040 
884 95040 
885 95040 
886 95040 
887 95040 
888 95040 
889 95040 
890 95040 
891 95040 
892 95040 
893 95040 
894 95040 
895 95040 
896 95040 
897 95040 
898 95040 
899 95040 
900 95040 
901 95040 
902 95040 
903 95040 
904 95040 
905 95040 
906 95040 
907 95040 
908 95040 
909 95040 
910 95040 
911 95040 
912 95040 
913 95040 
914 95040 
915 95040 
916 95040 
917 95040 
918 95040 
919 95040 
920 95040 
921 95040 
922 95040 
923 95040 
924 95040 
925 95040 
926 95040 
927 95040 
928 95040 
929 95040 
930 95040 
931 95040 
932 95040 
933 95040 
934 95040 
935 95040 
936 95040 
937 95040 
938 95040 
939 95040 
940 95040 
941 95040 
942 95040 
943 95040 
944 95040 
945 95040 
946 95040 
947 95040 
948 95040 
949 95040 
950 95040 
951 95040 
952 95040 
953 95040 
954 95040 
955 95040 
956 95040 
957 95040 
958 95040 
959 95040 
960 95040 
961 95040 
962 95040 
963 95040 
964 95040 
965 95040 
966 95040 
967 95040 
968 95040 
969 95040 
970 95040 
971 95040 
972 95040 
973 95040 
974 95040 
975 95040 
976 95040 
977 95040 
978 95040 
979 95040 
980 95040 
981 95040 
982 95040 
983 95040 
984 95040 
985 95040 
986 95040 
987 95040 
988 95040 
989 95040 
990 95040 
991 95040 
992 95040 
993 95040 
994 95040 
995 95040 
996 95040 
997 95040 
998 95040 
999 95040 
1000 95040 
1001 95040 
1002 95040 
1003 95040 
1004 95040 
1005 95040 
1006 95040 
1007 95040 
1008 95040 
1009 95040 
1010 95040 
1011 95040 
1012 95040 
1013 95040 
1014 95040 
1015 95040 
1016 95040 
1017 95040 
1018 95040 
1019 95040 
1020 95040 
1021 95040 
1022 95040 
1023 95040 
1024 95040 
1025 95040 
1026 95040 
1027 95040 
1028 95040 
1029 95040 
1030 95040 
1031 95040 
1032 95040 
1033 95040 
1034 95040 
1035 95040 
1036 95040 
1037 95040 
1038 95040 
1039 95040 
1040 95040 
1041 95040 
1042 95040 
1043 95040 
1044 95040 
1045 95040 
1046 95040 
1047 95040 
1048 95040 
1049 95040 
1050 95040 
1051 95040 
1052 95040 
1053 95040 
1054 95040 
1055 95040 
1056 95040 
1057 95040 
1058 95040 
1059 95040 
1060 95040 
1061 95040 
1062 95040 
1063 95040 
1064 95040 
1065 95040 
1066 95040 
1067 95040 
1068 95040 
1069 95040 
1070 95040 
1071 95040 
1072 95040 
1073 95040 
1074 95040 
1075 95040 
1076 95040 
1077 95040 
1078 95040 
1079 95040 
1080 95040 
1081 95040 
1082 95040 
1083 95040 
1084 95040 
1085 95040 
1086 95040 
1087 95040 
1088 95040 
1089 95040 
1090 95040 
1091 95040 
1092 95040 
1093 95040 
1094 95040 
1095 95040 
1096 95040 
1097 95040 
1098 95040 
1099 95040 
1100 95040 
1101 95040 
1102 95040 
1103 95040 
1104 95040 
1105 95040 
1106 95040 
1107 95040 
1108 95040 
1109 95040 
1110 95040 
1111 95040 
1112 95040 
1113 95040 
1114 95040 
1115 95040 
1116 95040 
1117 95040 
1118 95040 
1119 95040 
1120 95040 
1121 95040 
1122 95040 
1123 95040 
1124 95040 
1125 95040 
1126 95040 
1127 95040 
1128 95040 
1129 95040 
1130 95040 
1131 95040 
1132 95040 
1133 95040 
1134 95040 
1135 95040 
1136 95040 
1137 95040 
1138 95040 
1139 95040 
1140 95040 
1141 95040 
1142 95040 
1143 95040 
1144 95040 
1145 95040 
1146 95040 
1147 95040 
1148 95040 
1149 95040 
1150 95040 
1151 95040 
1152 95040 
1153 95040 
1154 95040 
1155 95040 
1156 95040 
1157 95040 
1158 95040 
1159 95040 
1160 95040 
1161 95040 
1162 95040 
1163 95040 
1164 95040 
1165 95040 
1166 95040 
1167 95040 
1168 95040 
1169 95040 
1170 95040 
1171 95040 
1172 95040 
1173 95040 
1174 95040 
1175 95040 
1176 95040 
1177 95040 
1178 95040 
1179 95040 
1180 95040 
1181 95040 
1182 95040 
1183 95040 
1184 95040 
1185 95040 
1186 95040 
1187 95040 
1188 95040 
1189 95040 
1190 95040 
1191 95040 
1192 95040 
1193 95040 
1194 95040 
1195 95040 
1196 95040 
1197 95040 
1198 95040 
1199 95040 
1200 95040 
1201 95040 
1202 95040 
1203 95040 
1204 95040 
1205 95040 
1206 95040 
1207 95040 
1208 95040 
1209 95040 
1210 95040 
1211 95040 
1212 95040 
1213 95040 
1214 95040 
1215 95040 
1216 95040 
1217 95040 
1218 95040 
1219 95040 
1220 95040 
1221 95040 
1222 95040 
1223 95040 
1224 95040 
1225 95040 
1226 95040 
1227 95040 
1228 95040 
1229 95040 
1230 95040 
1231 95040 
1232 95040 
1233 95040 
1234 95040 
1235 95040 
1236 95040 
1237 95040 
1238 95040 
1239 95040 
1240 95040 
1241 95040 
1242 95040 
1243 95040 
1244 95040 
1245 95040 
1246 95040 
1247 95040 
1248 95040 
1249 95040 
1250 95040 
1251 95040 
1252 95040 
1253 95040 
1254 95040 
1255 95040 
1256 95040 
1257 95040 
1258 95040 
1259 95040 
1260 95040 
1261 95040 
1262 95040 
1263 95040 
1264 95040 
1265 95040 
1266 95040 
1267 95040 
1268 95040 
1269 95040 
1270 95040 
1271 95040 
1272 95040 
1273 95040 
1274 95040 
1275 95040 
1276 95040 
1277 95040 
1278 95040 
1279 95040 
1280 95040 
1281 95040 
1282 95040 
1283 95040 
1284 95040 
1285 95040 
1286 95040 
1287 95040 
1288 95040 
1289 95040 
1290 95040 
1291 95040 
1292 95040 
1293 95040 
1294 95040 
1295 95040 
1296 95040 
1297 95040 
1298 95040 
1299 95040 
1300 95040 
1301 95040 
1302 95040 
1303 95040 
1304 95040 
1305 95040 
1306 95040 
1307 95040 
1308 95040 
1309 95040 
1310 95040 
1311 95040 
1312 95040 
1313 95040 
1314 95040 
1315 95040 
1316 95040 
1317 95040 
1318 95040 
1319 95040 
1320 95040 
1321 95040 
1322 95040 
1323 95040 
1324 95040 
1325 95040 
1326 95040 
1327 95040 
1328 95040 
1329 95040 
1330 95040 
1331 95040 
1332 95040 
1333 95040 
1334 95040 
1335 95040 
1336 95040 
1337 95040 
1338 95040 
1339 95040 
1340 95040 
1341 95040 
1342 95040 
1343 95040 
1344 95040 
1345 95040 
1346 95040 
1347 95040 
1348 95040 
1349 95040 
1350 95040 
1351 95040 
1352 95040 
1353 95040 
1354 95040 
1355 95040 
1356 95040 
1357 95040 
1358 95040 
1359 95040 
1360 95040 
1361 95040 
1362 95040 
1363 95040 
1364 95040 
1365 95040 
1366 95040 
1367 95040 
1368 95040 
1369 95040 
1370 95040 
1371 95040 
1372 95040 
1373 95040 
1374 95040 
1375 95040 
1376 95040 
1377 95040 
1378 95040 
1379 95040 
1380 95040 
1381 95040 
1382 95040 
1383 95040 
1384 95040 
1385 95040 
1386 95040 
1387 95040 
1388 95040 
1389 95040 
1390 95040 
1391 95040 
1392 95040 
1393 95040 
1394 95040 
1395 95040 
1396 95040 
1397 95040 
1398 95040 
1399 95040 
1400 95040 
1401 95040 
1402 95040 
1403 95040 
1404 95040 
1405 95040 
1406 95040 
1407 95040 
1408 95040 
1409 95040 
1410 95040 
1411 95040 
1412 95040 
1413 95040 
1414 95040 
1415 95040 
1416 95040 
1417 95040 
1418 95040 
1419 95040 
1420 95040 
1421 95040 
1422 95040 
1423 95040 
1424 95040 
1425 95040 
1426 95040 
1427 95040 
1428 95040 
1429 95040 
1430 95040 
1431 95040 
1432 95040 
1433 95040 
1434 95040 
1435 95040 
1436 95040 
1437 95040 
1438 95040 
1439 95040 
1440 95040 
1441 95040 
1442 95040 
1443 95040 
1444 95040 
1445 95040 
1446 95040 
1447 95040 
1448 95040 
1449 95040 
1450 95040 
1451 95040 
1452 95040 
1453 95040 
1454 95040 
1455 95040 
1456 95040 
1457 95040 
1458 95040 
1459 95040 
1460 95040 
1461 95040 
1462 95040 
1463 95040 
1464 95040 
1465 95040 
1466 95040 
1467 95040 
1468 95040 
1469 95040 
1470 95040 
1471 95040 
1472 95040 
1473 95040 
1474 95040 
1475 95040 
1476 95040 
1477 95040 
1478 95040 
1479 95040 
1480 95040 
1481 95040 
1482 95040 
1483 95040 
1484 95040 
1485 95040 
1486 95040 
1487 95040 
1488 95040 
1489 95040 
1490 95040 
1491 95040 
1492 95040 
1493 95040 
1494 95040 
1495 95040 
1496 95040 
1497 95040 
1498 95040 
1499 95040 
1500 95040 
1501 95040 
1502 95040 
1503 95040 
1504 95040 
1505 95040 
1506 95040 
1507 95040 
1508 95040 
1509 95040 
1510 95040 
1511 95040 
1512 95040 
1513 95040 
1514 95040 
1515 95040 
1516 95040 
1517 95040 
1518 95040 
1519 95040 
1520 95040 
1521 95040 
1522 95040 
1523 95040 
1524 95040 
1525 95040 
1526 95040 
1527 95040 
1528 95040 
1529 95040 
1530 95040 
1531 95040 
1532 95040 
1533 95040 
1534 95040 
1535 95040 
1536 95040 
1537 95040 
1538 95040 
1539 95040 
1540 95040 
1541 95040 
1542 95040 
1543 95040 
1544 95040 
1545 95040 
1546 95040 
1547 95040 
1548 95040 
1549 95040 
1550 95040 
1551 95040 
1552 95040 
1553 95040 
1554 95040 
1555 95040 
1556 95040 
1557 95040 
1558 95040 
1559 95040 
1560 95040 
1561 95040 
1562 95040 
1563 95040 
1564 95040 
1565 95040 
1566 95040 
1567 95040 
1568 95040 
1569 95040 
1570 95040 
1571 95040 
1572 95040 
1573 95040 
1574 95040 
1575 95040 
1576 95040 
1577 95040 
1578 95040 
1579 95040 
1580 95040 
1581 95040 
1582 95040 
1583 95040 
1584 95040 
1585 95040 
1586 95040 
1587 95040 
1588 95040 
1589 95040 
1590 95040 
1591 95040 
1592 95040 
1593 95040 
1594 95040 
1595 95040 
1596 95040 
1597 95040 
1598 95040 
1599 95040 
1600 95040 
1601 95040 
1602 95040 
1603 95040 
1604 95040 
1605 95040 
1606 95040 
1607 95040 
1608 95040 
1609 95040 
1610 95040 
1611 95040 
1612 95040 
1613 95040 
1614 95040 
1615 95040 
1616 95040 
1617 95040 
1618 95040 
1619 95040 
1620 95040 
1621 95040 
1622 95040 
1623 95040 
1624 95040 
1625 95040 
1626 95040 
1627 95040 
1628 95040 
1629 95040 
1630 95040 
1631 95040 
1632 95040 
1633 95040 
1634 95040 
1635 95040 
1636 95040 
1637 95040 
1638 95040 
1639 95040 
1640 95040 
1641 95040 
1642 95040 
1643 95040 
1644 95040 
1645 95040 
1646 95040 
1647 95040 
1648 95040 
1649 95040 
1650 95040 
1651 95040 
1652 95040 
1653 95040 
1654 95040 
1655 95040 
1656 95040 
1657 95040 
1658 95040 
1659 95040 
1660 95040 
1661 95040 
1662 95040 
1663 95040 
1664 95040 
1665 95040 
1666 95040 
1667 95040 
1668 95040 
1669 95040 
1670 95040 
1671 95040 
1672 95040 
1673 95040 
1674 95040 
1675 95040 
1676 95040 
1677 95040 
1678 95040 
1679 95040 
1680 95040 
1681 95040 
1682 95040 
1683 95040 
1684 95040 
1685 95040 
1686 95040 
1687 95040 
1688 95040 
1689 95040 
1690 95040 
1691 95040 
1692 95040 
1693 95040 
1694 95040 
1695 95040 
1696 95040 
1697 95040 
1698 95040 
1699 95040 
1700 95040 
1701 95040 
1702 95040 
1703 95040 
1704 95040 
1705 95040 
1706 95040 
1707 95040 
1708 95040 
1709 95040 
1710 95040 
1711 95040 
1712 95040 
1713 95040 
1714 95040 
1715 95040 
1716 95040 
1717 95040 
1718 95040 
1719 95040 
1720 95040 
1721 95040 
1722 95040 
1723 95040 
1724 95040 
1725 95040 
1726 95040 
1727 95040 
1728 95040 
1729 95040 
1730 95040 
1731 95040 
1732 95040 
1733 95040 
1734 95040 
1735 95040 
1736 95040 
1737 95040 
1738 95040 
1739 95040 
1740 95040 
1741 95040 
1742 95040 
1743 95040 
1744 95040 
1745 95040 
1746 95040 
1747 95040 
1748 95040 
1749 95040 
1750 95040 
1751 95040 
1752 95040 
1753 95040 
1754 95040 
1755 95040 
1756 95040 
1757 95040 
1758 95040 
1759 95040 
1760 95040 
1761 95040 
1762 95040 
1763 95040 
1764 95040 
1765 95040 
1766 95040 
1767 95040 
1768 95040 
1769 95040 
1770 95040 
1771 95040 
1772 95040 
1773 95040 
1774 95040 
1775 95040 
1776 95040 
1777 95040 
1778 95040 
1779 95040 
1780 95040 
1781 95040 
1782 95040 
1783 95040 
1784 95040 
1785 95040 
1786 95040 
1787 95040 
1788 95040 
1789 95040 
1790 95040 
1791 95040 
1792 95040 
1793 95040 
1794 95040 
1795 95040 
1796 95040 
1797 95040 
1798 95040 
1799 95040 
1800 95040 
1801 95040 
1802 95040 
1803 95040 
1804 95040 
1805 95040 
1806 95040 
1807 95040 
1808 95040 
1809 95040 
1810 95040 
1811 95040 
1812 95040 
1813 95040 
1814 95040 
1815 95040 
1816 95040 
1817 95040 
1818 95040 
1819 95040 
1820 95040 
1821 95040 
1822 95040 
1823 95040 
1824 95040 
1825 95040 
1826 95040 
1827 95040 
1828 95040 
1829 95040 
1830 95040 
1831 95040 
1832 95040 
1833 95040 
1834 95040 
1835 95040 
1836 95040 
1837 95040 
1838 95040 
1839 95040 
1840 95040 
1841 95040 
1842 95040 
1843 95040 
1844 95040 
1845 95040 
1846 95040 
1847 95040 
1848 95040 
1849 95040 
1850 95040 
1851 95040 
1852 95040 
1853 95040 
1854 95040 
1855 95040 
1856 95040 
1857 95040 
1858 95040 
1859 95040 
1860 95040 
1861 95040 
1862 95040 
1863 95040 
1864 95040 
1865 95040 
1866 95040 
1867 95040 
1868 95040 
1869 95040 
1870 95040 
1871 95040 
1872 95040 
1873 95040 
1874 95040 
1875 95040 
1876 95040 
1877 95040 
1878 95040 
1879 95040 
1880 95040 
1881 95040 
1882 95040 
1883 95040 
1884 95040 
1885 95040 
1886 95040 
1887 95040 
1888 95040 
1889 95040 
1890 95040 
1891 95040 
1892 95040 
1893 95040 
1894 95040 
1895 95040 
1896 95040 
1897 95040 
1898 95040 
1899 95040 
1900 95040 
1901 95040 
1902 95040 
1903 95040 
1904 95040 
1905 95040 
1906 95040 
1907 95040 
1908 95040 
1909 95040 
1910 95040 
1911 95040 
1912 95040 
1913 95040 
1914 95040 
1915 95040 
1916 95040 
1917 95040 
1918 95040 
1919 95040 
1920 95040 
1921 95040 
1922 95040 
1923 95040 
1924 95040 
1925 95040 
1926 95040 
1927 95040 
1928 95040 
1929 95040 
1930 95040 
1931 95040 
1932 95040 
1933 95040 
1934 95040 
1935 95040 
1936 95040 
1937 95040 
1938 95040 
1939 95040 
1940 95040 
1941 95040 
1942 95040 
1943 95040 
1944 95040 
1945 95040 
1946 95040 
1947 95040 
1948 95040 
1949 95040 
1950 95040 
1951 95040 
1952 95040 
1953 95040 
1954 95040 
1955 95040 
1956 95040 
1957 95040 
1958 95040 
1959 95040 
1960 95040 
1961 95040 
1962 95040 
1963 95040 
1964 95040 
1965 95040 
1966 95040 
1967 95040 
1968 95040 
1969 95040 
1970 95040 
1971 95040 
1972 95040 
1973 95040 
1974 95040 
1975 95040 
1976 95040 
1977 95040 
1978 95040 
1979 95040 
1980 95040 
1981 95040 
1982 95040 
1983 95040 
1984 95040 
1985 95040 
1986 95040 
1987 95040 
1988 95040 
1989 95040 
1990 95040 
1991 95040 
1992 95040 
1993 95040 
1994 95040 
1995 95040 
1996 95040 
1997 95040 
1998 95040 
1999 95040 
2000 95040 
2001 95040 
2002 95040 
2003 95040 
2004 95040 
2005 95040 
2006 95040 
2007 95040 
2008 95040 
2009 95040 
2010 95040 
2011 95040 
2012 95040 
2013 95040 
2014 95040 
2015 95040 
2016 95040 
2017 95040 
2018 95040 
2019 95040 
2020 95040 
2021 95040 
2022 95040 
2023 95040 
2024 95040 
2025 95040 
2026 95040 
2027 95040 
2028 95040 
2029 95040 
2030 95040 
2031 95040 
2032 95040 
2033 95040 
2034 95040 
2035 95040 
2036 95040 
2037 95040 
2038 95040 
2039 95040 
2040 95040 
2041 95040 
2042 95040 
2043 95040 
2044 95040 
2045 95040 
2046 95040 
2047 95040 
2048 95040 
2049 95040 
2050 95040 
2051 95040 
2052 95040 
2053 95040 
2054 95040 
2055 95040 
2056 95040 
2057 95040 
2058 95040 
2059 95040 
2060 95040 
2061 95040 
2062 95040 
2063 95040 
2064 95040 
2065 95040 
2066 95040 
2067 95040 
2068 95040 
2069 95040 
2070 95040 
2071 95040 
2072 95040 
2073 95040 
2074 95040 
2075 95040 
2076 95040 
2077 95040 
2078 95040 
2079 95040 
2080 95040 
2081 95040 
2082 95040 
2083 95040 
2084 95040 
2085 95040 
2086 95040 
2087 95040 
2088 95040 
2089 95040 
2090 95040 
2091 95040 
2092 95040 
2093 95040 
2094 95040 
2095 95040 
2096 95040 
2097 95040 
2098 95040 
2099 95040 
2100 95040 
2101 95040 
2102 95040 
2103 95040 
2104 95040 
2105 95040 
2106 95040 
2107 95040 
2108 95040 
2109 95040 
2110 95040 
2111 95040 
2112 95040 
2113 95040 
2114 95040 
2115 95040 
2116 95040 
2117 95040 
2118 95040 
2119 95040 
2120 95040 
2121 95040 
2122 95040 
2123 95040 
2124 95040 
2125 95040 
2126 95040 
2127 95040 
2128 95040 
2129 95040 
2130 95040 
2131 95040 
2132 95040 
2133 95040 
2134 95040 
2135 95040 
2136 95040 
2137 95040 
2138 95040 
2139 95040 
2140 95040 
2141 95040 
2142 95040 
2143 95040 
2144 95040 
2145 95040 
2146 95040 
2147 95040 
2148 95040 
2149 95040 
2150 95040 
2151 95040 
2152 95040 
2153 95040 
2154 95040 
2155 95040 
2156 95040 
2157 95040 
2158 95040 
2159 95040 
2160 95040 
2161 95040 
2162 95040 
2163 95040 
2164 95040 
2165 95040 
2166 95040 
2167 95040 
2168 95040 
2169 95040 
2170 95040 
2171 95040 
2172 95040 
2173 95040 
2174 95040 
2175 95040 
2176 95040 
2177 95040 
2178 95040 
2179 95040 
2180 95040 
2181 95040 
2182 95040 
2183 95040 
2184 95040 
2185 95040 
2186 95040 
2187 95040 
2188 95040 
2189 95040 
2190 95040 
2191 95040 
2192 95040 
2193 95040 
2194 95040 
2195 95040 
2196 95040 
2197 95040 
2198 95040 
2199 95040 
2200 95040 
2201 95040 
2202 95040 
2203 95040 
2204 95040 
2205 95040 
2206 95040 
2207 95040 
2208 95040 
2209 95040 
2210 95040 
2211 95040 
2212 95040 
2213 95040 
2214 95040 
2215 95040 
2216 95040 
2217 95040 
2218 95040 
2219 95040 
2220 95040 
2221 95040 
2222 95040 
2223 95040 
2224 95040 
2225 95040 
2226 95040 
2227 95040 
2228 95040 
2229 95040 
2230 95040 
2231 95040 
2232 95040 
2233 95040 
2234 95040 
2235 95040 
2236 95040 
2237 95040 
2238 95040 
2239 95040 
2240 95040 
2241 95040 
2242 95040 
2243 95040 
2244 95040 
2245 95040 
2246 95040 
2247 95040 
2248 95040 
2249 95040 
2250 95040 
2251 95040 
2252 95040 
2253 95040 
2254 95040 
2255 95040 
2256 95040 
2257 95040 
2258 95040 
2259 95040 
2260 95040 
2261 95040 
2262 95040 
2263 95040 
2264 95040 
2265 95040 
2266 95040 
2267 95040 
2268 95040 
2269 95040 
2270 95040 
2271 95040 
2272 95040 
2273 95040 
2274 95040 
2275 95040 
2276 95040 
2277 95040 
2278 95040 
2279 95040 
2280 95040 
2281 95040 
2282 95040 
2283 95040 
2284 95040 
2285 95040 
2286 95040 
2287 95040 
2288 95040 
2289 95040 
2290 95040 
2291 95040 
2292 95040 
2293 95040 
2294 95040 
2295 95040 
2296 95040 
2297 95040 
2298 95040 
2299 95040 
2300 95040 
2301 95040 
2302 95040 
2303 95040 
2304 95040 
2305 95040 
2306 95040 
2307 95040 
2308 95040 
2309 95040 
2310 95040 
2311 95040 
2312 95040 
2313 95040 
2314 95040 
2315 95040 
2316 95040 
2317 95040 
2318 95040 
2319 95040 
2320 95040 
2321 95040 
2322 95040 
2323 95040 
2324 95040 
2325 95040 
2326 95040 
2327 95040 
2328 95040 
2329 95040 
2330 95040 
2331 95040 
2332 95040 
2333 95040 
2334 95040 
2335 95040 
2336 95040 
2337 95040 
2338 95040 
2339 95040 
2340 95040 
2341 95040 
2342 95040 
2343 95040 
2344 95040 
2345 95040 
2346 95040 
2347 95040 
2348 95040 
2349 95040 
2350 95040 
2351 95040 
2352 95040 
2353 95040 
2354 95040 
2355 95040 
2356 95040 
2357 95040 
2358 95040 
2359 95040 
2360 95040 
2361 95040 
2362 95040 
2363 95040 
2364 95040 
2365 95040 
2366 95040 
2367 95040 
2368 95040 
2369 95040 
2370 95040 
2371 95040 
2372 95040 
2373 95040 
2374 95040 
2375 95040 
2376 95040 
2377 95040 
2378 95040 
2379 95040 
2380 95040 
2381 95040 
2382 95040 
2383 95040 
2384 95040 
2385 95040 
2386 95040 
2387 95040 
2388 95040 
2389 95040 
2390 95040 
2391 95040 
2392 95040 
2393 95040 
2394 95040 
2395 95040 
2396 95040 
2397 95040 
2398 95040 
2399 95040 
2400 95040 
2401 95040 
2402 95040 
2403 95040 
2404 95040 
2405 95040 
2406 95040 
2407 95040 
2408 95040 
2409 95040 
2410 95040 
2411 95040 
2412 95040 
2413 95040 
2414 95040 
2415 95040 
2416 95040 
2417 95040 
2418 95040 
2419 95040 
2420 95040 
2421 95040 
2422 95040 
2423 95040 
2424 95040 
2425 95040 
2426 95040 
2427 95040 
2428 95040 
2429 95040 
2430 95040 
2431 95040 
2432 95040 
2433 95040 
2434 95040 
2435 95040 
2436 95040 
2437 95040 
2438 95040 
2439 95040 
2440 95040 
2441 95040 
2442 95040 
2443 95040 
2444 95040 
2445 95040 
2446 95040 
2447 95040 
2448 95040 
2449 95040 
2450 95040 
2451 95040 
2452 95040 
2453 95040 
2454 95040 
2455 95040 
2456 95040 
2457 95040 
2458 95040 
2459 95040 
2460 95040 
2461 95040 
2462 95040 
2463 95040 
2464 95040 
2465 95040 
2466 95040 
2467 95040 
2468 95040 
2469 95040 
2470 95040 
2471 95040 
2472 95040 
2473 95040 
2474 95040 
2475 95040 
2476 95040 
2477 95040 
2478 95040 
2479 95040 
2480 95040 
2481 95040 
2482 95040 
2483 95040 
2484 95040 
2485 95040 
2486 95040 
2487 95040 
2488 95040 
2489 95040 
2490 95040 
2491 95040 
2492 95040 
2493 95040 
2494 95040 
2495 95040 
2496 95040 
2497 95040 
2498 95040 
2499 95040 
2500 95040 
2501 95040 
2502 95040 
2503 95040 
2504 95040 
2505 95040 
2506 95040 
2507 95040 
2508 95040 
2509 95040 
2510 95040 
2511 95040 
2512 95040 
2513 95040 
2514 95040 
2515 95040 
2516 95040 
2517 95040 
2518 95040 
2519 95040 
2520 95040 
2521 95040 
2522 95040 
2523 95040 
2524 95040 
2525 95040 
2526 95040 
2527 95040 
2528 95040 
2529 95040 
2530 95040 
2531 95040 
2532 95040 
2533 95040 
2534 95040 
2535 95040 
2536 95040 
2537 95040 
2538 95040 
2539 95040 
2540 95040 
2541 95040 
2542 95040 
2543 95040 
2544 95040 
2545 95040 
2546 95040 
2547 95040 
2548 95040 
2549 95040 
2550 95040 
2551 95040 
2552 95040 
2553 95040 
2554 95040 
2555 95040 
2556 95040 
2557 95040 
2558 95040 
2559 95040 
2560 95040 
2561 95040 
2562 95040 
2563 95040 
2564 95040 
2565 95040 
2566 95040 
2567 95040 
2568 95040 
2569 95040 
2570 95040 
2571 95040 
2572 95040 
2573 95040 
2574 95040 
2575 95040 
2576 95040 
2577 95040 
2578 95040 
2579 95040 
2580 95040 
2581 95040 
2582 95040 
2583 95040 
2584 95040 
2585 95040 
2586 95040 
2587 95040 
2588 95040 
2589 95040 
2590 95040 
2591 95040 
2592 95040 
2593 95040 
2594 95040 
2595 95040 
2596 95040 
2597 95040 
2598 95040 
2599 95040 
2600 95040 
2601 95040 
2602 95040 
2603 95040 
2604 95040 
2605 95040 
2606 95040 
2607 95040 
2608 95040 
2609 95040 
2610 95040 
2611 95040 
2612 95040 
2613 95040 
2614 95040 
2615 95040 
2616 95040 
2617 95040 
2618 95040 
2619 95040 
2620 95040 
2621 95040 
2622 95040 
2623 95040 
2624 95040 
2625 95040 
2626 95040 
2627 95040 
2628 95040 
2629 95040 
2630 95040 
2631 95040 
2632 95040 
2633 95040 
2634 95040 
2635 95040 
2636 95040 
2637 95040 
2638 95040 
2639 95040 
2640 95040 
2641 95040 
2642 95040 
2643 95040 
2644 95040 
2645 95040 
2646 95040 
2647 95040 
2648 95040 
2649 95040 
2650 95040 
2651 95040 
2652 95040 
2653 95040 
2654 95040 
2655 95040 
2656 95040 
2657 95040 
2658 95040 
2659 95040 
2660 95040 
2661 95040 
2662 95040 
2663 95040 
2664 95040 
2665 95040 
2666 95040 
2667 95040 
2668 95040 
2669 95040 
2670 95040 
2671 95040 
2672 95040 
2673 95040 
2674 95040 
2675 95040 
2676 95040 
2677 95040 
2678 95040 
2679 95040 
2680 95040 
2681 95040 
2682 95040 
2683 95040 
2684 95040 
2685 95040 
2686 95040 
2687 95040 
2688 95040 
2689 95040 
2690 95040 
2691 95040 
2692 95040 
2693 95040 
2694 95040 
2695 95040 
2696 95040 
2697 95040 
2698 95040 
2699 95040 
2700 95040 
2701 95040 
2702 95040 
2703 95040 
2704 95040 
2705 95040 
2706 95040 
2707 95040 
2708 95040 
2709 95040 
2710 95040 
2711 95040 
2712 95040 
2713 95040 
2714 95040 
2715 95040 
2716 95040 
2717 95040 
2718 95040 
2719 95040 
2720 95040 
2721 95040 
2722 95040 
2723 95040 
2724 95040 
2725 95040 
2726 95040 
2727 95040 
2728 95040 
2729 95040 
2730 95040 
2731 95040 
2732 95040 
2733 95040 
2734 95040 
2735 95040 
2736 95040 
2737 95040 
2738 95040 
2739 95040 
2740 95040 
2741 95040 
2742 95040 
2743 95040 
2744 95040 
2745 95040 
2746 95040 
2747 95040 
2748 95040 
2749 95040 
2750 95040 
2751 95040 
2752 95040 
2753 95040 
2754 95040 
2755 95040 
2756 95040 
2757 95040 
2758 95040 
2759 95040 
2760 95040 
2761 95040 
2762 95040 
2763 95040 
2764 95040 
2765 95040 
2766 95040 
2767 95040 
2768 95040 
2769 95040 
2770 95040 
2771 95040 
2772 95040 
2773 95040 
2774 95040 
2775 95040 
2776 95040 
2777 95040 
2778 95040 
2779 95040 
2780 95040 
2781 95040 
2782 95040 
2783 95040 
2784 95040 
2785 95040 
2786 95040 
2787 95040 
2788 95040 
2789 95040 
2790 95040 
2791 95040 
2792 95040 
2793 95040 
2794 95040 
2795 95040 
2796 95040 
2797 95040 
2798 95040 
2799 95040 
2800 95040 
2801 95040 
2802 95040 
2803 95040 
2804 95040 
2805 95040 
2806 95040 
2807 95040 
2808 95040 
2809 95040 
2810 95040 
2811 95040 
2812 95040 
2813 95040 
2814 95040 
2815 95040 
2816 95040 
2817 95040 
2818 95040 
2819 95040 
2820 95040 
2821 95040 
2822 95040 
2823 95040 
2824 95040 
2825 95040 
2826 95040 
2827 95040 
2828 95040 
2829 95040 
2830 95040 
2831 95040 
2832 95040 
2833 95040 
2834 95040 
2835 95040 
2836 95040 
2837 95040 
2838 95040 
2839 95040 
2840 95040 
2841 95040 
2842 95040 
2843 95040 
2844 95040 
2845 95040 
2846 95040 
2847 95040 
2848 95040 
2849 95040 
2850 95040 
2851 95040 
2852 95040 
2853 95040 
2854 95040 
2855 95040 
2856 95040 
2857 95040 
2858 95040 
2859 95040 
2860 95040 
2861 95040 
2862 95040 
2863 95040 
2864 95040 
2865 95040 
2866 95040 
2867 95040 
2868 95040 
2869 95040 
2870 95040 
2871 95040 
2872 95040 
2873 95040 
2874 95040 
2875 95040 
2876 95040 
2877 95040 
2878 95040 
2879 95040 
2880 95040 
2881 95040 
2882 95040 
2883 95040 
2884 95040 
2885 95040 
2886 95040 
2887 95040 
2888 95040 
2889 95040 
2890 95040 
2891 95040 
2892 95040 
2893 95040 
2894 95040 
2895 95040 
2896 95040 
2897 95040 
2898 95040 
2899 95040 
2900 95040 
2901 95040 
2902 95040 
2903 95040 
2904 95040 
2905 95040 
2906 95040 
2907 95040 
2908 95040 
2909 95040 
2910 95040 
2911 95040 
2912 95040 
2913 95040 
2914 95040 
2915 95040 
2916 95040 
2917 95040 
2918 95040 
2919 95040 
2920 95040 
2921 95040 
2922 95040 
2923 95040 
2924 95040 
2925 95040 
2926 95040 
2927 95040 
2928 95040 
2929 95040 
2930 95040 
2931 95040 
2932 95040 
2933 95040 
2934 95040 
2935 95040 
2936 95040 
2937 95040 
2938 95040 
2939 95040 
2940 95040 
2941 95040 
2942 95040 
2943 95040 
2944 95040 
2945 95040 
2946 95040 
2947 95040 
2948 95040 
2949 95040 
2950 95040 
2951 95040 
2952 95040 
2953 95040 
2954 95040 
2955 95040 
2956 95040 
2957 95040 
2958 95040 
2959 95040 
2960 95040 
2961 95040 
2962 95040 
2963 95040 
2964 95040 
2965 95040 
2966 95040 
2967 95040 
2968 95040 
2969 95040 
2970 95040 
2971 95040 
2972 95040 
2973 95040 
2974 95040 
2975 95040 
2976 95040 
2977 95040 
2978 95040 
2979 95040 
2980 95040 
2981 95040 
2982 95040 
2983 95040 
2984 95040 
2985 95040 
2986 95040 
2987 95040 
2988 95040 
2989 95040 
2990 95040 
2991 95040 
2992 95040 
2993 95040 
2994 95040 
2995 95040 
2996 95040 
2997 95040 
2998 95040 
2999 95040 
3000 95040 
3001 95040 
3002 95040 
3003 95040 
3004 95040 
3005 95040 
3006 95040 
3007 95040 
3008 95040 
3009 95040 
3010 95040 
3011 95040 
3012 95040 
3013 95040 
3014 95040 
3015 95040 
3016 95040 
3017 95040 
3018 95040 
3019 95040 
3020 95040 
3021 95040 
3022 95040 
3023 95040 
3024 95040 
3025 95040 
3026 95040 
3027 95040 
3028 95040 
3029 95040 
3030 95040 
3031 95040 
3032 95040 
3033 95040 
3034 95040 
3035 95040 
3036 95040 
3037 95040 
3038 95040 
3039 95040 
3040 95040 
3041 95040 
3042 95040 
3043 95040 
3044 95040 
3045 95040 
3046 95040 
3047 95040 
3048 95040 
3049 95040 
3050 95040 
3051 95040 
3052 95040 
3053 95040 
3054 95040 
3055 95040 
3056 95040 
3057 95040 
3058 95040 
3059 95040 
3060 95040 
3061 95040 
3062 95040 
3063 95040 
3064 95040 
3065 95040 
3066 95040 
3067 95040 
3068 95040 
3069 95040 
3070 95040 
3071 95040 
3072 95040 
3073 95040 
3074 95040 
3075 95040 
3076 95040 
3077 95040 
3078 95040 
3079 95040 
3080 95040 
3081 95040 
3082 95040 
3083 95040 
3084 95040 
3085 95040 
3086 95040 
3087 95040 
3088 95040 
3089 95040 
3090 95040 
3091 95040 
3092 95040 
3093 95040 
3094 95040 
3095 95040 
3096 95040 
3097 95040 
3098 95040 
3099 95040 
3100 95040 
3101 95040 
3102 95040 
3103 95040 
3104 95040 
3105 95040 
3106 95040 
3107 95040 
3108 95040 
3109 95040 
3110 95040 
3111 95040 
3112 95040 
3113 95040 
3114 95040 
3115 95040 
3116 95040 
3117 95040 
3118 95040 
3119 95040 
3120 95040 
3121 95040 
3122 95040 
3123 95040 
3124 95040 
3125 95040 
3126 95040 
3127 95040 
3128 95040 
3129 95040 
3130 95040 
3131 95040 
3132 95040 
3133 95040 
3134 95040 
3135 95040 
3136 95040 
3137 95040 
3138 95040 
3139 95040 
3140 95040 
3141 95040 
3142 95040 
3143 95040 
3144 95040 
3145 95040 
3146 95040 
3147 95040 
3148 95040 
3149 95040 
3150 95040 
3151 95040 
3152 95040 
3153 95040 
3154 95040 
3155 95040 
3156 95040 
3157 95040 
3158 95040 
3159 95040 
3160 95040 
3161 95040 
3162 95040 
3163 95040 
3164 95040 
3165 95040 
3166 95040 

